400 50
0 0
205 0
0 199
313 0
0 114
364 0
0 331
137 0
313 222
141 199
0 251
78 331
364 268
143 114
205 145
334 0
334 133
377 0
65 251
143 145
337 222
334 80
381 268
364 342
371 342
65 299
186 145
313 300
352 133
313 276
169 199
364 366
347 80
65 316
391 0
0 368
389 268
334 36
342 80
364 299
104 299
65 280
323 276
391 164
378 342
391 112
369 0
104 309
354 222
143 168
